Au_{x}Cu_{y}_Pb_{1-x-y} 
 1.0000000000000000
     0.0000000000000000    7.2000000000000002    7.2000000000000002
     7.2000000000000002    0.0000000000000000    7.2000000000000002
     7.2000000000000002    7.2000000000000002    0.0000000000000000
 Au Cu Al
 10 22 32
Cartesian
  1.8000000000000000  1.8000000000000000  0.0000000000000000
  1.8000000000000000  0.0000000000000000  1.8000000000000000
  3.6000000000000001  1.8000000000000000  1.8000000000000000
  5.4000000000000004  3.6000000000000001  1.8000000000000000
  5.4000000000000004  1.8000000000000000  3.6000000000000001
  9.0000000000000000  5.4000000000000004  3.6000000000000001
  9.0000000000000000  3.6000000000000001  5.4000000000000004
 10.8000000000000007  5.4000000000000004  5.4000000000000004
  0.0000000000000000  1.8000000000000000  1.8000000000000000
  1.8000000000000000  3.6000000000000001  1.8000000000000000
  3.6000000000000001  5.4000000000000004  1.8000000000000000
  5.4000000000000004  7.2000000000000002  1.8000000000000000
  7.2000000000000002  7.2000000000000002  3.6000000000000001
  3.6000000000000001  1.8000000000000000  5.4000000000000004
  7.2000000000000002  5.4000000000000004  5.4000000000000004
  7.2000000000000002  3.6000000000000001  7.2000000000000002
  9.0000000000000000  5.4000000000000004  7.2000000000000002
  0.0000000000000000  3.6000000000000001  3.6000000000000001
  1.8000000000000000  5.4000000000000004  3.6000000000000001
  5.4000000000000004  9.0000000000000000  3.6000000000000001
  1.8000000000000000  3.6000000000000001  5.4000000000000004
  3.6000000000000001  5.4000000000000004  5.4000000000000004
  5.4000000000000004  7.2000000000000002  5.4000000000000004
  5.4000000000000004  5.4000000000000004  7.2000000000000002
  9.0000000000000000  9.0000000000000000  7.2000000000000002
  5.4000000000000004  3.6000000000000001  9.0000000000000000
  7.2000000000000002  5.4000000000000004  9.0000000000000000
  9.0000000000000000  7.2000000000000002  9.0000000000000000
  1.8000000000000000  7.2000000000000002  5.4000000000000004
  5.4000000000000004 10.8000000000000007  5.4000000000000004
  1.8000000000000000  5.4000000000000004  7.2000000000000002
 10.8000000000000007 10.8000000000000007 10.8000000000000007
  0.0000000000000000  0.0000000000000000  0.0000000000000000
  3.6000000000000001  3.6000000000000001  0.0000000000000000
  5.4000000000000004  5.4000000000000004  0.0000000000000000
  7.2000000000000002  5.4000000000000004  1.8000000000000000
  3.6000000000000001  0.0000000000000000  3.6000000000000001
  7.2000000000000002  3.6000000000000001  3.6000000000000001
  5.4000000000000004  0.0000000000000000  5.4000000000000004
  7.2000000000000002  1.8000000000000000  5.4000000000000004
  1.8000000000000000  1.8000000000000000  3.6000000000000001
  3.6000000000000001  3.6000000000000001  3.6000000000000001
  5.4000000000000004  5.4000000000000004  3.6000000000000001
  5.4000000000000004  3.6000000000000001  5.4000000000000004
  9.0000000000000000  7.2000000000000002  5.4000000000000004
  5.4000000000000004  1.8000000000000000  7.2000000000000002
 10.8000000000000007  7.2000000000000002  7.2000000000000002
  3.6000000000000001  7.2000000000000002  3.6000000000000001
  7.2000000000000002  9.0000000000000000  5.4000000000000004
  3.6000000000000001  3.6000000000000001  7.2000000000000002
  7.2000000000000002  7.2000000000000002  7.2000000000000002
 10.8000000000000007  9.0000000000000000  9.0000000000000000
  0.0000000000000000  5.4000000000000004  5.4000000000000004
  3.6000000000000001  9.0000000000000000  5.4000000000000004
  3.6000000000000001  7.2000000000000002  7.2000000000000002
  5.4000000000000004  9.0000000000000000  7.2000000000000002
  7.2000000000000002 10.8000000000000007  7.2000000000000002
  3.6000000000000001  5.4000000000000004  9.0000000000000000
  5.4000000000000004  7.2000000000000002  9.0000000000000000
  7.2000000000000002  9.0000000000000000  9.0000000000000000
  9.0000000000000000 10.8000000000000007  9.0000000000000000
  5.4000000000000004  5.4000000000000004 10.8000000000000007
  7.2000000000000002  7.2000000000000002 10.8000000000000007
  9.0000000000000000  9.0000000000000000 10.8000000000000007
